magmas/benchmarks/p/input9/Equation3907_implies_Equation3892.p
fof(a1, axiom,
    ! [X0, X1, X2] :
        (op(X0,X0) = op(op(X1,op(X2,X2)),X2))
).

fof(conjecture0, conjecture,
    ! [X0, X1, X2] :
        (op(X0,X0) = op(op(X1,op(X1,X1)),X2))
).
